c instance by G2
c solution = 0101101111101
c Known solution cost is 564 
p cnf 13 30
w 76 33 13 63 39 9 50 90 33 28 30 87 13
-3 1 -7 0
5 9 2 0
-7 -9 10 0
10 -11 12 0
2 -10 7 0
3 -2 13 0
13 12 -7 0
-4 5 -9 0
6 -7 5 0
-13 6 4 0
3 -4 2 0
-9 -5 -6 0
1 4 -6 0
-6 11 -9 0
-1 6 -7 0
13 5 -7 0
9 3 -10 0
-8 4 -13 0
-2 5 -9 0
7 -1 -12 0
5 -10 -11 0
3 -12 -10 0
7 3 4 0
1 -3 -10 0
4 -2 -11 0
-4 -5 8 0
-6 4 2 0
12 -4 -6 0
11 -2 -9 0
-11 7 -13 0
